p cnf 25 66
e 1 0
a 2 0
e 3 4 5 0
e 6 7 8 9 10 11 12 13 14 15 16 17 18 19 20 21 22 23 24 25 0
3 6 0
-2 6 0
-3 2 -6 0
2 7 0
-3 7 0
-2 3 -7 0
6 -8 0
7 -8 0
-6 -7 8 0
4 9 0
-1 9 0
-4 1 -9 0
1 10 0
-4 10 0
-1 4 -10 0
9 -11 0
10 -11 0
-9 -10 11 0
4 12 0
-3 12 0
-4 3 -12 0
3 13 0
-4 13 0
-3 4 -13 0
12 -14 0
13 -14 0
-12 -13 14 0
-11 15 0
-14 15 0
11 14 -15 0
5 16 0
-1 16 0
-5 1 -16 0
1 17 0
-5 17 0
-1 5 -17 0
16 -18 0
17 -18 0
-16 -17 18 0
5 19 0
-3 19 0
-5 3 -19 0
3 20 0
-5 20 0
-3 5 -20 0
19 -21 0
20 -21 0
-19 -20 21 0
-18 22 0
-21 22 0
18 21 -22 0
-4 23 0
-5 23 0
4 5 -23 0
4 24 0
-5 24 0
-4 5 -24 0
-8 -25 0
15 -25 0
22 -25 0
-4 -25 0
23 -25 0
24 -25 0
5 -25 0
8 -15 -22 4 -23 -24 -5 25 0
25 0

